c clasp version 2.1.4
c Reading from ...arks/19_Nodes/PBencd_EuclideanCost.opb
c Solving...
o 704
o 701
o 611
o 608
o 600
o 599
o 597
o 595
o 591
o 588
o 585
o 579
o 576
o 573
o 564
o 558
o 557
o 555
o 554
o 553
o 525
o 518
o 516
o 513
o 509
o 506
o 505
o 504
o 503
o 488
o 485
o 481
o 473
o 466
o 458
o 440
o 433
o 429
o 426
o 422
o 412
o 401
o 376
o 374
o 371
o 363
o 360
o 357
o 354
o 353
o 346
o 341
o 340
o 333
o 330
o 326
o 319
o 313
o 304
o 296
o 295
o 293
o 285
o 284
o 281
o 279
o 276
